M = 3;
P = 4;
TimeRequired = array2d(1..3, 1..4, [2, 1, 3, 2, 4, 2, 1, 2, 6, 2, 1, 2]);
MachineCosts = [160, 10, 15];
Availability = [200, 300, 500];
Prices = [570, 250, 585, 430];
SetupTime = [12, 8, 4, 0];
